&INPUT
  fildyn = 'reference/dyn' ! same as ph.in
  flfrc = 'MATDYN/mat2R' ! output file
  zasr = 'crystal'
/